
Gurobi 11.0.1 (win64) logging started Wed May 15 14:42:28 2024

Set parameter LogFile to value "output/solver_log8.txt"
Gurobi Optimizer version 11.0.1 build v11.0.1rc0 (win64 - Windows 11.0 (22631.2))

CPU model: 11th Gen Intel(R) Core(TM) i7-1165G7 @ 2.80GHz, instruction set [SSE2|AVX|AVX2|AVX512]
Thread count: 4 physical cores, 8 logical processors, using up to 8 threads

Optimize a model with 2162 rows, 402 columns and 39988 nonzeros
Model fingerprint: 0x243f2947
Variable types: 248 continuous, 154 integer (154 binary)
Coefficient statistics:
  Matrix range     [4e-01, 1e+05]
  Objective range  [1e+00, 1e+02]
  Bounds range     [1e+00, 1e+00]
  RHS range        [1e-02, 1e+05]

User MIP start produced solution with objective 39807.6 (0.00s)
Loaded user MIP start with objective 39807.6

Presolve removed 102 rows and 102 columns
Presolve time: 0.04s
Presolved: 2060 rows, 300 columns, 39332 nonzeros
Variable types: 233 continuous, 67 integer (67 binary)

Root relaxation: objective 4.152783e+04, 724 iterations, 0.04 seconds (0.08 work units)

    Nodes    |    Current Node    |     Objective Bounds      |     Work
 Expl Unexpl |  Obj  Depth IntInf | Incumbent    BestBd   Gap | It/Node Time

     0     0 41527.8270    0   12 39807.5795 41527.8270  4.32%     -    0s
     0     0 41119.1925    0   11 39807.5795 41119.1925  3.29%     -    0s
     0     0 40836.5400    0   13 39807.5795 40836.5400  2.58%     -    0s
     0     0 40171.2275    0   10 39807.5795 40171.2275  0.91%     -    0s
     0     0 40063.7251    0    7 39807.5795 40063.7251  0.64%     -    0s
     0     0 40039.9547    0    7 39807.5795 40039.9547  0.58%     -    0s

Cutting planes:
  Gomory: 2
  Implied bound: 2
  Relax-and-lift: 1

Explored 1 nodes (2309 simplex iterations) in 0.43 seconds (0.61 work units)
Thread count was 8 (of 8 available processors)

Solution count 2: 39807.6 39807.6 

Optimal solution found (tolerance 1.00e-04)
Best objective 3.980757954321e+04, best bound 3.981144356104e+04, gap 0.0097%
